language Essence 1.3

letting blksize_delta be
        function(1 --> 10, 2 --> 10, 3 --> 10, 4 --> 10, 5 --> 10, 6 --> 10, 7 --> 10, 8 --> 10, 9 --> 10, 10 --> 10,
                 11 --> 10, 12 --> 10, 13 --> 10, 14 --> 10, 15 --> 10, 16 --> 10, 17 --> 10, 18 --> 10, 19 --> 10,
                 20 --> 10, 21 --> 10, 22 --> 10, 23 --> 10)
letting maxcars be
        function(1 --> 9, 2 --> 9, 3 --> 9, 4 --> 9, 5 --> 9, 6 --> 9, 7 --> 9, 8 --> 9, 9 --> 9, 10 --> 9, 11 --> 9,
                 12 --> 9, 13 --> 9, 14 --> 9, 15 --> 9, 16 --> 9, 17 --> 9, 18 --> 9, 19 --> 9, 20 --> 9, 21 --> 9,
                 22 --> 9, 23 --> 9)
letting n_cars be 228
letting n_classes be 30
letting n_options be 23
letting quantity be
        function(1 --> 7, 2 --> 7, 3 --> 7, 4 --> 7, 5 --> 7, 6 --> 7, 7 --> 7, 8 --> 7, 9 --> 7, 10 --> 7, 11 --> 7,
                 12 --> 7, 13 --> 7, 14 --> 7, 15 --> 7, 16 --> 7, 17 --> 15, 18 --> 7, 19 --> 7, 20 --> 7, 21 --> 7,
                 22 --> 7, 23 --> 7, 24 --> 7, 25 --> 7, 26 --> 14, 27 --> 7, 28 --> 7, 29 --> 7, 30 --> 10)
letting usage be
        relation((1, 11), (1, 12), (1, 13), (1, 20), (2, 1), (2, 4), (2, 5), (3, 10), (4, 5), (4, 11), (4, 15), (4, 23),
                 (5, 6), (6, 9), (6, 16), (6, 23), (7, 7), (7, 19), (8, 1), (8, 7), (8, 12), (8, 15), (8, 18), (9, 17),
                 (9, 20), (10, 7), (10, 20), (11, 4), (12, 11), (12, 23), (13, 7), (13, 13), (13, 17), (13, 19),
                 (14, 7), (14, 21), (14, 23), (15, 7), (16, 9), (16, 12), (16, 16), (16, 18), (17, 1), (17, 21),
                 (18, 16), (19, 7), (20, 23), (21, 6), (21, 9), (21, 18), (21, 23), (22, 8), (22, 15), (22, 23),
                 (23, 7), (24, 6), (24, 10), (24, 22), (25, 5), (25, 13), (25, 23), (26, 2), (26, 7), (26, 20), (27, 7),
                 (27, 13), (28, 9), (28, 14), (28, 23), (29, 3), (29, 6), (29, 8), (30, 5), (30, 7), (30, 11), (30, 21))
$ Visualisation for usage
$  1 11
$  1 12
$  1 13
$  1 20
$  2  1
$  2  4
$  2  5
$  3 10
$  4  5
$  4 11
$  4 15
$  4 23
$  5  6
$  6  9
$  6 16
$  6 23
$  7  7
$  7 19
$  8  1
$  8  7
$  8 12
$  8 15
$  8 18
$  9 17
$  9 20
$ 10  7
$ 10 20
$ 11  4
$ 12 11
$ 12 23
$ 13  7
$ 13 13
$ 13 17
$ 13 19
$ 14  7
$ 14 21
$ 14 23
$ 15  7
$ 16  9
$ 16 12
$ 16 16
$ 16 18
$ 17  1
$ 17 21
$ 18 16
$ 19  7
$ 20 23
$ 21  6
$ 21  9
$ 21 18
$ 21 23
$ 22  8
$ 22 15
$ 22 23
$ 23  7
$ 24  6
$ 24 10
$ 24 22
$ 25  5
$ 25 13
$ 25 23
$ 26  2
$ 26  7
$ 26 20
$ 27  7
$ 27 13
$ 28  9
$ 28 14
$ 28 23
$ 29  3
$ 29  6
$ 29  8
$ 30  5
$ 30  7
$ 30 11
$ 30 21

